1 1 -2 0
1 -3 4 0
1 3 2 0
1 2 4 0
1 -2 3 0
1 -5 -6 0
1 7 -3 0
1 -7 -8 0
1 -9 -10 0
1 9 11 0
1 -9 12 0
1 -9 5 0
1 -13 -14 0
1 10 13 0
1 -15 16 0
1 17 -10 0
1 18 -19 0
1 19 -13 0
1 20 -17 0
1 21 -19 0
1 21 -6 0
1 -21 20 0
1 21 22 0
1 23 18 0
1 23 -24 0
1 25 -26 0
1 -25 -14 0
1 -27 -28 0
1 -27 -29 0
1 -27 -30 0
1 29 30 0
1 31 32 0
1 -31 -33 0
1 -34 33 0
1 -33 -34 0
1 -35 -36 0
1 -35 30 0
1 -37 -38 0
1 -37 39 0
1 -32 -26 0
1 32 40 0
1 -41 29 0
1 41 -42 0
1 30 -37 0
1 -36 27 0
1 40 -29 0
1 -43 -44 0
1 -16 15 0
1 42 -45 0
1 -46 47 0
1 -46 42 0
1 46 -48 0
1 47 -16 0
1 44 -16 0
1 44 49 0
1 -39 50 0
1 -14 -10 0
1 14 -45 0
1 -14 12 0
1 -49 -15 0
1 -49 -51 0
1 -49 25 0
1 52 45 0
1 52 53 0
1 52 54 0
1 55 56 0
1 -55 -2 0
1 51 57 0
1 -48 -56 0
1 -48 58 0
1 -48 50 0
1 57 59 0
1 -22 -60 0
1 -61 62 0
1 63 51 0
1 63 64 0
1 -54 -65 0
1 53 -60 0
1 -53 -66 0
1 -53 61 0
1 -60 -58 0
1 67 59 0
1 67 54 0
1 68 69 0
1 -70 -64 0
1 64 -70 0
1 71 14 0
1 -71 72 0
1 -71 -73 0
1 74 75 0
1 -76 -77 0
1 -76 -74 0
1 -76 -72 0
1 -78 -79 0
1 -78 71 0
1 78 50 0
1 73 71 0
1 73 -34 0
1 -77 -71 0
1 -72 -74 0
1 80 81 0
1 -82 -83 0
1 -82 -84 0
1 75 -50 0
1 -56 -85 0
1 56 -48 0
1 -85 -56 0
1 66 86 0
1 -87 86 0
